
Gurobi 6.5.2 (linux64) logging started Mon Aug 29 10:57:54 2016

Optimize a model with 101 rows, 663 columns and 1583 nonzeros
Coefficient statistics:
  Matrix range    [1e+00, 2e+00]
  Objective range [2e+00, 1e+02]
  Bounds range    [1e+00, 1e+00]
  RHS range       [1e+00, 1e+00]
Found heuristic solution: objective 1970
Presolve removed 29 rows and 1 columns
Presolve time: 0.00s
Presolved: 72 rows, 662 columns, 1393 nonzeros
Variable types: 0 continuous, 662 integer (662 binary)

Root relaxation: objective 7.365000e+02, 62 iterations, 0.00 seconds

    Nodes    |    Current Node    |     Objective Bounds      |     Work
 Expl Unexpl |  Obj  Depth IntInf | Incumbent    BestBd   Gap | It/Node Time

     0     0  736.50000    0   12 1970.00000  736.50000  62.6%     -    0s
H    0     0                    1157.0000000  736.50000  36.3%     -    0s
H    0     0                     828.0000000  736.50000  11.1%     -    0s
H    0     0                     760.0000000  736.50000  3.09%     -    0s
     0     0  752.00000    0    6  760.00000  752.00000  1.05%     -    0s
     0     0  752.00000    0   12  760.00000  752.00000  1.05%     -    0s
     0     0  752.00000    0    6  760.00000  752.00000  1.05%     -    0s
     0     0  758.50000    0    6  760.00000  758.50000  0.20%     -    0s
     0     0  758.50000    0    6  760.00000  758.50000  0.20%     -    0s
     0     0  758.50000    0   15  760.00000  758.50000  0.20%     -    0s
     0     0     cutoff    0       760.00000  759.00076  0.13%     -    0s

Cutting planes:
  Gomory: 3
  Cover: 3
  Clique: 1
  MIR: 1
  Zero half: 1

Explored 0 nodes (251 simplex iterations) in 0.02 seconds
Thread count was 8 (of 8 available processors)

Optimal solution found (tolerance 1.00e-04)
Best objective 7.600000000000e+02, best bound 7.600000000000e+02, gap 0.0%
